
(set-logic BV)

(define-fun shr1 ((x (BitVec 64))) (BitVec 64) (bvlshr x #x0000000000000001))
(define-fun shr4 ((x (BitVec 64))) (BitVec 64) (bvlshr x #x0000000000000004))
(define-fun shr16 ((x (BitVec 64))) (BitVec 64) (bvlshr x #x0000000000000010))
(define-fun shl1 ((x (BitVec 64))) (BitVec 64) (bvshl x #x0000000000000001))
(define-fun if0 ((x (BitVec 64)) (y (BitVec 64)) (z (BitVec 64))) (BitVec 64) (ite (= x #x0000000000000001) y z))
(define-fun func24  ((A (BitVec 64)) (B (BitVec 64)) (C (BitVec 64)) (D (BitVec 64)) ) (BitVec 64) (bvand (bvlshr (bvlshr C  D ) B ) A ))
(define-fun func25  ((A (BitVec 64)) (B (BitVec 64)) (C (BitVec 64)) ) (BitVec 64) (bvand (bvlshr B  C ) A ))
(define-fun func26  ((A (BitVec 64)) (B (BitVec 64)) ) (BitVec 64) (bvand (bvlshr B  #x0000000000000001 ) A ))
(define-fun func27  ((A (BitVec 64)) (B (BitVec 64)) ) (BitVec 64) (bvand (bvlshr B  #x0000000000000010 ) A ))
(define-fun func28  ((A (BitVec 64)) (B (BitVec 64)) ) (BitVec 64) (bvand (bvlshr B  #x0000000000000004 ) A ))
(define-fun func29  ((A (BitVec 64)) (B (BitVec 64)) ) (BitVec 64) (bvand (bvlshr A  B ) #x0000000000000001 ))
(define-fun func30  ((A (BitVec 64)) ) (BitVec 64) (bvand A  #x0000000000000001 ))
(define-fun func31  ((A (BitVec 64)) (B (BitVec 64)) (C (BitVec 64)) (D (BitVec 64)) ) (BitVec 64) (bvlshr (bvlshr (bvlshr C  D ) B ) A ))
(define-fun func32  ((A (BitVec 64)) (B (BitVec 64)) (C (BitVec 64)) ) (BitVec 64) (bvlshr (bvlshr (bvlshr C  #x0000000000000010 ) B ) A ))
(define-fun func33  ((A (BitVec 64)) (B (BitVec 64)) (C (BitVec 64)) ) (BitVec 64) (bvlshr (bvlshr (bvlshr B  C ) A ) #x0000000000000004 ))
(define-fun func34  ((A (BitVec 64)) (B (BitVec 64)) (C (BitVec 64)) ) (BitVec 64) (bvlshr (bvlshr (bvlshr B  C ) #x0000000000000004 ) A ))
(define-fun func35  ((A (BitVec 64)) (B (BitVec 64)) (C (BitVec 64)) ) (BitVec 64) (bvlshr (bvlshr B  C ) A ))
(define-fun func36  ((A (BitVec 64)) (B (BitVec 64)) ) (BitVec 64) (bvlshr (bvlshr B  #x0000000000000010 ) A ))
(define-fun func37  ((A (BitVec 64)) (B (BitVec 64)) ) (BitVec 64) (bvlshr (bvlshr B  #x0000000000000004 ) A ))
(define-fun func38  ((A (BitVec 64)) (B (BitVec 64)) ) (BitVec 64) (bvlshr (bvlshr B  #x0000000000000001 ) A ))
(define-fun func39  ((A (BitVec 64)) (B (BitVec 64)) ) (BitVec 64) (bvlshr (bvlshr A  B ) #x0000000000000001 ))
(define-fun func40  ((A (BitVec 64)) (B (BitVec 64)) ) (BitVec 64) (bvlshr (bvlshr A  B ) #x0000000000000004 ))
(define-fun func41  ((A (BitVec 64)) (B (BitVec 64)) ) (BitVec 64) (bvlshr A  B ))
(define-fun func42  ((A (BitVec 64)) (B (BitVec 64)) (C (BitVec 64)) ) (BitVec 64) (bvlshr (bvshl B  C ) A ))
(define-fun func43  ((A (BitVec 64)) (B (BitVec 64)) ) (BitVec 64) (bvlshr (bvshl B  #x0000000000000001 ) A ))
(define-fun func44  ((A (BitVec 64)) (B (BitVec 64)) ) (BitVec 64) (bvlshr (bvshl A  B ) #x0000000000000004 ))
(define-fun func45  ((A (BitVec 64)) (B (BitVec 64)) (C (BitVec 64)) ) (BitVec 64) (bvlshr (bvadd B  C ) A ))
(define-fun func46  ((A (BitVec 64)) (B (BitVec 64)) ) (BitVec 64) (bvlshr (bvnot B ) A ))
(define-fun func47  ((A (BitVec 64)) ) (BitVec 64) (bvlshr (bvnot A ) #x0000000000000010 ))
(define-fun func48  ((A (BitVec 64)) (B (BitVec 64)) (C (BitVec 64)) ) (BitVec 64) (bvor (bvlshr B  C ) A ))
(define-fun func49  ((A (BitVec 64)) ) (BitVec 64) (bvor A  #x0000000000000001 ))
(define-fun func50  ((A (BitVec 64)) (B (BitVec 64)) (C (BitVec 64)) ) (BitVec 64) (bvshl (bvlshr B  C ) A ))
(define-fun func51  ((A (BitVec 64)) (B (BitVec 64)) ) (BitVec 64) (bvshl (bvlshr B  #x0000000000000001 ) A ))
(define-fun func52  ((A (BitVec 64)) (B (BitVec 64)) ) (BitVec 64) (bvshl (bvlshr A  B ) #x0000000000000001 ))
(define-fun func54  ((A (BitVec 64)) (B (BitVec 64)) (C (BitVec 64)) ) (BitVec 64) (bvadd (bvlshr B  C ) A ))
(define-fun func55  ((A (BitVec 64)) ) (BitVec 64) (bvadd A  #x0000000000000001 ))
(define-fun func56  ((A (BitVec 64)) (B (BitVec 64)) (C (BitVec 64)) ) (BitVec 64) (bvadd (bvshl B  C ) A ))
(define-fun func57  ((A (BitVec 64)) (B (BitVec 64)) ) (BitVec 64) (bvadd (bvshl B  #x0000000000000001 ) A ))
(define-fun func58  ((A (BitVec 64)) ) (BitVec 64) (bvnot (bvshl A  #x0000000000000001 )))
(synth-fun f ( (x (BitVec 64))) (BitVec 64)
(
(Start (BitVec 64) (
   #x0000000000000000
   #x0000000000000001
   x
   (func24 Start Start Start Start)
   (func25 Start Start Start)
   (func27 Start Start)
   (func29 Start Start)
   (func32 Start Start Start)
   (func33 Start Start Start)
   (func35 Start Start Start)
   (func37 Start Start)
   (func38 Start Start)
   (func39 Start Start)
   (func40 Start Start)
   (func42 Start Start Start)
   (func43 Start Start)
   (func44 Start Start)
   (func47 Start)
   (func48 Start Start Start)
   (func52 Start Start)
   (func54 Start Start Start)
   (func55 Start)
   (func57 Start Start)
   (func58 Start)
   (bvnot Start)
   (shl1 Start)
   (shr1 Start)
   (bvor Start Start)
   (if0 Start Start Start)
))
))
(constraint (= (f #x82e2cfc24b066408) #x002e2cfc24b06640))
(constraint (= (f #x7153a42a416409b2) #x07153a42a416409b))
(constraint (= (f #x0fd9f387c08c7a62) #x00fd9f387c08c7a6))
(constraint (= (f #x03fbe59cfb1858a2) #x003fbe59cfb1858a))
(constraint (= (f #xa2c725620562317e) #x022c725620562317))
(constraint (= (f #x9fade97b12c6c046) #x01fade97b12c6c04))
(constraint (= (f #xa2ce4bc8ac28e31a) #x022ce4bc8ac28e31))
(constraint (= (f #x971c12aa6490e056) #x0171c12aa6490e05))
(constraint (= (f #x229f99a251148a66) #x0229f99a251148a6))
(constraint (= (f #xdc9c7c67a5ca977c) #x05c9c7c67a5ca977))
(constraint (= (f #xeeed10dec09c00b9) #x07776886f604e005))
(constraint (= (f #xd37e53e32352558f) #x069bf29f191a92ac))
(constraint (= (f #x5efc0fe6f5be3413) #x02f7e07f37adf1a0))
(constraint (= (f #x1257a3c0533e5f67) #x0092bd1e0299f2fb))
(constraint (= (f #x061976dde0ac0e2b) #x0030cbb6ef056071))
(constraint (= (f #xbb31cb425dad5d08) #x000044ce34bda252))
(constraint (= (f #x9640b23daee5644a) #x000069bf4dc2511a))
(constraint (= (f #xcbdcb70323a72d12) #x0000342348fcdc58))
(constraint (= (f #x7adc15b90cc120ca) #x00008523ea46f33e))
(constraint (= (f #xb0eb88613edd464e) #x00004f14779ec122))
(constraint (= (f #x3f0bdb950bbea7d1) #x01f85edca85df53e))
(constraint (= (f #x332265ef6d7cb053) #x0199132f7b6be582))
(constraint (= (f #xb43a5580ebe0fe25) #x05a1d2ac075f07f1))
(constraint (= (f #x5f64c7fe2990ec53) #x02fb263ff14c8762))
(constraint (= (f #x12fd8ee87ffaa1cd) #x0097ec7743ffd50e))
(constraint (= (f #xf50ba2768ccdbf50) #x00000af45d897332))
(constraint (= (f #x27c012cf4e2fc174) #x0000d83fed30b1d0))
(constraint (= (f #x113dfe31a7addf54) #x0000eec201ce5852))
(constraint (= (f #xed4f5ec8bb43b9c4) #x000012b0a13744bc))
(constraint (= (f #xe73f2b68b793c288) #x000018c0d497486c))
(constraint (= (f #xaae732b58efb4847) #x00005518cd4a7104))
(constraint (= (f #xc76f906a9e51785f) #x000038906f9561ae))
(constraint (= (f #x9ab395a8f4116a39) #x0000654c6a570bee))
(constraint (= (f #xcc1d10c2eb611673) #x000033e2ef3d149e))
(constraint (= (f #xa871d9724a6f2689) #x0000578e268db590))
(constraint (= (f #xf000000000000001) #x0780000000000000))
(constraint (= (f #xf94c2fd2c635a86b) #x000006b3d02d39ca))
(constraint (= (f #xbbe602ab1f87ab87) #x00004419fd54e078))
(constraint (= (f #xe900cde66ee2ffff) #x000016ff3219911d))
(constraint (= (f #x508887f0cb89d6bd) #x0000af77780f3476))
(constraint (= (f #x24115465d23bf003) #x0000dbeeab9a2dc4))
(check-synth)
